data/simple-data/tester.fzn
predicate fzn_all_different_int(array [int] of var int: x);
array [1..2] of int: X_INTRODUCED_30_ = [-1,1];
var 1..12: X_INTRODUCED_17_;
var 1..12: X_INTRODUCED_18_;
var 1..12: X_INTRODUCED_19_;
var 1..12: X_INTRODUCED_20_;
var 1..12: X_INTRODUCED_21_;
var 1..12: X_INTRODUCED_22_;
var 1..12: X_INTRODUCED_23_;
var 1..12: X_INTRODUCED_24_;
var 1..12: X_INTRODUCED_25_;
var 1..12: X_INTRODUCED_26_;
var 1..12: X_INTRODUCED_27_;
var 1..12: X_INTRODUCED_28_;
var bool: X_INTRODUCED_31_ ::var_is_introduced :: is_defined_var;
var bool: X_INTRODUCED_32_ ::var_is_introduced :: is_defined_var;
var bool: X_INTRODUCED_33_ ::var_is_introduced :: is_defined_var;
var bool: X_INTRODUCED_34_ ::var_is_introduced :: is_defined_var;
var bool: X_INTRODUCED_35_ ::var_is_introduced :: is_defined_var;
var bool: X_INTRODUCED_36_ ::var_is_introduced :: is_defined_var;
var bool: X_INTRODUCED_37_ ::var_is_introduced :: is_defined_var;
var bool: X_INTRODUCED_38_ ::var_is_introduced :: is_defined_var;
var bool: X_INTRODUCED_39_ ::var_is_introduced :: is_defined_var;
var bool: X_INTRODUCED_40_ ::var_is_introduced :: is_defined_var;
var bool: X_INTRODUCED_41_ ::var_is_introduced :: is_defined_var;
var bool: X_INTRODUCED_42_ ::var_is_introduced :: is_defined_var;
var bool: X_INTRODUCED_43_ ::var_is_introduced :: is_defined_var;
var bool: X_INTRODUCED_44_ ::var_is_introduced :: is_defined_var;
var bool: X_INTRODUCED_45_ ::var_is_introduced :: is_defined_var;
var bool: X_INTRODUCED_46_ ::var_is_introduced :: is_defined_var;
var bool: X_INTRODUCED_47_ ::var_is_introduced :: is_defined_var;
var bool: X_INTRODUCED_48_ ::var_is_introduced :: is_defined_var;
var bool: X_INTRODUCED_49_ ::var_is_introduced :: is_defined_var;
var bool: X_INTRODUCED_50_ ::var_is_introduced :: is_defined_var;
var bool: X_INTRODUCED_51_ ::var_is_introduced :: is_defined_var;
var bool: X_INTRODUCED_52_ ::var_is_introduced :: is_defined_var;
var bool: X_INTRODUCED_53_ ::var_is_introduced :: is_defined_var;
var bool: X_INTRODUCED_54_ ::var_is_introduced :: is_defined_var;
var bool: X_INTRODUCED_55_ ::var_is_introduced :: is_defined_var;
var bool: X_INTRODUCED_56_ ::var_is_introduced :: is_defined_var;
var bool: X_INTRODUCED_57_ ::var_is_introduced :: is_defined_var;
var bool: X_INTRODUCED_58_ ::var_is_introduced :: is_defined_var;
var bool: X_INTRODUCED_59_ ::var_is_introduced :: is_defined_var;
var bool: X_INTRODUCED_60_ ::var_is_introduced :: is_defined_var;
var bool: X_INTRODUCED_61_ ::var_is_introduced :: is_defined_var;
var bool: X_INTRODUCED_62_ ::var_is_introduced :: is_defined_var;
var bool: X_INTRODUCED_63_ ::var_is_introduced :: is_defined_var;
var bool: X_INTRODUCED_64_ ::var_is_introduced :: is_defined_var;
var bool: X_INTRODUCED_65_ ::var_is_introduced :: is_defined_var;
var bool: X_INTRODUCED_66_ ::var_is_introduced :: is_defined_var;
var bool: X_INTRODUCED_67_ ::var_is_introduced :: is_defined_var;
var bool: X_INTRODUCED_68_ ::var_is_introduced :: is_defined_var;
var bool: X_INTRODUCED_69_ ::var_is_introduced :: is_defined_var;
var bool: X_INTRODUCED_70_ ::var_is_introduced :: is_defined_var;
var bool: X_INTRODUCED_71_ ::var_is_introduced :: is_defined_var;
var bool: X_INTRODUCED_72_ ::var_is_introduced :: is_defined_var;
var bool: X_INTRODUCED_73_ ::var_is_introduced :: is_defined_var;
var bool: X_INTRODUCED_74_ ::var_is_introduced :: is_defined_var;
var bool: X_INTRODUCED_75_ ::var_is_introduced :: is_defined_var;
var bool: X_INTRODUCED_76_ ::var_is_introduced :: is_defined_var;
var bool: X_INTRODUCED_77_ ::var_is_introduced :: is_defined_var;
var bool: X_INTRODUCED_78_ ::var_is_introduced :: is_defined_var;
var bool: X_INTRODUCED_79_ ::var_is_introduced :: is_defined_var;
var bool: X_INTRODUCED_80_ ::var_is_introduced :: is_defined_var;
var bool: X_INTRODUCED_81_ ::var_is_introduced :: is_defined_var;
var bool: X_INTRODUCED_82_ ::var_is_introduced :: is_defined_var;
var bool: X_INTRODUCED_83_ ::var_is_introduced :: is_defined_var;
var bool: X_INTRODUCED_84_ ::var_is_introduced :: is_defined_var;
var bool: X_INTRODUCED_85_ ::var_is_introduced :: is_defined_var;
var bool: X_INTRODUCED_86_ ::var_is_introduced :: is_defined_var;
var bool: X_INTRODUCED_87_ ::var_is_introduced :: is_defined_var;
var bool: X_INTRODUCED_88_ ::var_is_introduced :: is_defined_var;
var bool: X_INTRODUCED_89_ ::var_is_introduced :: is_defined_var;
var bool: X_INTRODUCED_90_ ::var_is_introduced :: is_defined_var;
var bool: X_INTRODUCED_91_ ::var_is_introduced :: is_defined_var;
var bool: X_INTRODUCED_92_ ::var_is_introduced :: is_defined_var;
var bool: X_INTRODUCED_93_ ::var_is_introduced :: is_defined_var;
var bool: X_INTRODUCED_94_ ::var_is_introduced :: is_defined_var;
var bool: X_INTRODUCED_95_ ::var_is_introduced :: is_defined_var;
var bool: X_INTRODUCED_96_ ::var_is_introduced :: is_defined_var;
var 0..66: goal:: is_defined_var;
var 0..1: X_INTRODUCED_97_ ::var_is_introduced :: is_defined_var;
var 0..1: X_INTRODUCED_98_ ::var_is_introduced :: is_defined_var;
var 0..1: X_INTRODUCED_99_ ::var_is_introduced :: is_defined_var;
var 0..1: X_INTRODUCED_100_ ::var_is_introduced :: is_defined_var;
var 0..1: X_INTRODUCED_101_ ::var_is_introduced :: is_defined_var;
var 0..1: X_INTRODUCED_102_ ::var_is_introduced :: is_defined_var;
var 0..1: X_INTRODUCED_103_ ::var_is_introduced :: is_defined_var;
var 0..1: X_INTRODUCED_104_ ::var_is_introduced :: is_defined_var;
var 0..1: X_INTRODUCED_105_ ::var_is_introduced :: is_defined_var;
var 0..1: X_INTRODUCED_106_ ::var_is_introduced :: is_defined_var;
var 0..1: X_INTRODUCED_107_ ::var_is_introduced :: is_defined_var;
var 0..1: X_INTRODUCED_108_ ::var_is_introduced :: is_defined_var;
var 0..1: X_INTRODUCED_109_ ::var_is_introduced :: is_defined_var;
var 0..1: X_INTRODUCED_110_ ::var_is_introduced :: is_defined_var;
var 0..1: X_INTRODUCED_111_ ::var_is_introduced :: is_defined_var;
var 0..1: X_INTRODUCED_112_ ::var_is_introduced :: is_defined_var;
var 0..1: X_INTRODUCED_113_ ::var_is_introduced :: is_defined_var;
var 0..1: X_INTRODUCED_114_ ::var_is_introduced :: is_defined_var;
var 0..1: X_INTRODUCED_115_ ::var_is_introduced :: is_defined_var;
var 0..1: X_INTRODUCED_116_ ::var_is_introduced :: is_defined_var;
var 0..1: X_INTRODUCED_117_ ::var_is_introduced :: is_defined_var;
var 0..1: X_INTRODUCED_118_ ::var_is_introduced :: is_defined_var;
var 0..1: X_INTRODUCED_119_ ::var_is_introduced :: is_defined_var;
var 0..1: X_INTRODUCED_120_ ::var_is_introduced :: is_defined_var;
var 0..1: X_INTRODUCED_121_ ::var_is_introduced :: is_defined_var;
var 0..1: X_INTRODUCED_122_ ::var_is_introduced :: is_defined_var;
var 0..1: X_INTRODUCED_123_ ::var_is_introduced :: is_defined_var;
var 0..1: X_INTRODUCED_124_ ::var_is_introduced :: is_defined_var;
var 0..1: X_INTRODUCED_125_ ::var_is_introduced :: is_defined_var;
var 0..1: X_INTRODUCED_126_ ::var_is_introduced :: is_defined_var;
var 0..1: X_INTRODUCED_127_ ::var_is_introduced :: is_defined_var;
var 0..1: X_INTRODUCED_128_ ::var_is_introduced :: is_defined_var;
var 0..1: X_INTRODUCED_129_ ::var_is_introduced :: is_defined_var;
var 0..1: X_INTRODUCED_130_ ::var_is_introduced :: is_defined_var;
var 0..1: X_INTRODUCED_131_ ::var_is_introduced :: is_defined_var;
var 0..1: X_INTRODUCED_132_ ::var_is_introduced :: is_defined_var;
var 0..1: X_INTRODUCED_133_ ::var_is_introduced :: is_defined_var;
var 0..1: X_INTRODUCED_134_ ::var_is_introduced :: is_defined_var;
var 0..1: X_INTRODUCED_135_ ::var_is_introduced :: is_defined_var;
var 0..1: X_INTRODUCED_136_ ::var_is_introduced :: is_defined_var;
var 0..1: X_INTRODUCED_137_ ::var_is_introduced :: is_defined_var;
var 0..1: X_INTRODUCED_138_ ::var_is_introduced :: is_defined_var;
var 0..1: X_INTRODUCED_139_ ::var_is_introduced :: is_defined_var;
var 0..1: X_INTRODUCED_140_ ::var_is_introduced :: is_defined_var;
var 0..1: X_INTRODUCED_141_ ::var_is_introduced :: is_defined_var;
var 0..1: X_INTRODUCED_142_ ::var_is_introduced :: is_defined_var;
var 0..1: X_INTRODUCED_143_ ::var_is_introduced :: is_defined_var;
var 0..1: X_INTRODUCED_144_ ::var_is_introduced :: is_defined_var;
var 0..1: X_INTRODUCED_145_ ::var_is_introduced :: is_defined_var;
var 0..1: X_INTRODUCED_146_ ::var_is_introduced :: is_defined_var;
var 0..1: X_INTRODUCED_147_ ::var_is_introduced :: is_defined_var;
var 0..1: X_INTRODUCED_148_ ::var_is_introduced :: is_defined_var;
var 0..1: X_INTRODUCED_149_ ::var_is_introduced :: is_defined_var;
var 0..1: X_INTRODUCED_150_ ::var_is_introduced :: is_defined_var;
var 0..1: X_INTRODUCED_151_ ::var_is_introduced :: is_defined_var;
var 0..1: X_INTRODUCED_152_ ::var_is_introduced :: is_defined_var;
var 0..1: X_INTRODUCED_153_ ::var_is_introduced :: is_defined_var;
var 0..1: X_INTRODUCED_154_ ::var_is_introduced :: is_defined_var;
var 0..1: X_INTRODUCED_155_ ::var_is_introduced :: is_defined_var;
var 0..1: X_INTRODUCED_156_ ::var_is_introduced :: is_defined_var;
var 0..1: X_INTRODUCED_157_ ::var_is_introduced :: is_defined_var;
var 0..1: X_INTRODUCED_158_ ::var_is_introduced :: is_defined_var;
var 0..1: X_INTRODUCED_159_ ::var_is_introduced :: is_defined_var;
var 0..1: X_INTRODUCED_160_ ::var_is_introduced :: is_defined_var;
var 0..1: X_INTRODUCED_161_ ::var_is_introduced :: is_defined_var;
var 0..1: X_INTRODUCED_162_ ::var_is_introduced :: is_defined_var;
array [1..12] of var int: perm:: output_array([1..12]) = [X_INTRODUCED_17_,X_INTRODUCED_18_,X_INTRODUCED_19_,X_INTRODUCED_20_,X_INTRODUCED_21_,X_INTRODUCED_22_,X_INTRODUCED_23_,X_INTRODUCED_24_,X_INTRODUCED_25_,X_INTRODUCED_26_,X_INTRODUCED_27_,X_INTRODUCED_28_];
array [1..66] of var int: X_INTRODUCED_163_ ::var_is_introduced  = [X_INTRODUCED_97_,X_INTRODUCED_98_,X_INTRODUCED_99_,X_INTRODUCED_100_,X_INTRODUCED_101_,X_INTRODUCED_102_,X_INTRODUCED_103_,X_INTRODUCED_104_,X_INTRODUCED_105_,X_INTRODUCED_106_,X_INTRODUCED_107_,X_INTRODUCED_108_,X_INTRODUCED_109_,X_INTRODUCED_110_,X_INTRODUCED_111_,X_INTRODUCED_112_,X_INTRODUCED_113_,X_INTRODUCED_114_,X_INTRODUCED_115_,X_INTRODUCED_116_,X_INTRODUCED_117_,X_INTRODUCED_118_,X_INTRODUCED_119_,X_INTRODUCED_120_,X_INTRODUCED_121_,X_INTRODUCED_122_,X_INTRODUCED_123_,X_INTRODUCED_124_,X_INTRODUCED_125_,X_INTRODUCED_126_,X_INTRODUCED_127_,X_INTRODUCED_128_,X_INTRODUCED_129_,X_INTRODUCED_130_,X_INTRODUCED_131_,X_INTRODUCED_132_,X_INTRODUCED_133_,X_INTRODUCED_134_,X_INTRODUCED_135_,X_INTRODUCED_136_,X_INTRODUCED_137_,X_INTRODUCED_138_,X_INTRODUCED_139_,X_INTRODUCED_140_,X_INTRODUCED_141_,X_INTRODUCED_142_,X_INTRODUCED_143_,X_INTRODUCED_144_,X_INTRODUCED_145_,X_INTRODUCED_146_,X_INTRODUCED_147_,X_INTRODUCED_148_,X_INTRODUCED_149_,X_INTRODUCED_150_,X_INTRODUCED_151_,X_INTRODUCED_152_,X_INTRODUCED_153_,X_INTRODUCED_154_,X_INTRODUCED_155_,X_INTRODUCED_156_,X_INTRODUCED_157_,X_INTRODUCED_158_,X_INTRODUCED_159_,X_INTRODUCED_160_,X_INTRODUCED_161_,X_INTRODUCED_162_];
constraint fzn_all_different_int(perm):: domain;
constraint int_lin_le_reif(X_INTRODUCED_30_,[X_INTRODUCED_17_,X_INTRODUCED_18_],-1,X_INTRODUCED_31_):: defines_var(X_INTRODUCED_31_);
constraint int_lin_le_reif(X_INTRODUCED_30_,[X_INTRODUCED_17_,X_INTRODUCED_19_],-1,X_INTRODUCED_32_):: defines_var(X_INTRODUCED_32_);
constraint int_lin_le_reif(X_INTRODUCED_30_,[X_INTRODUCED_17_,X_INTRODUCED_20_],-1,X_INTRODUCED_33_):: defines_var(X_INTRODUCED_33_);
constraint int_lin_le_reif(X_INTRODUCED_30_,[X_INTRODUCED_17_,X_INTRODUCED_21_],-1,X_INTRODUCED_34_):: defines_var(X_INTRODUCED_34_);
constraint int_lin_le_reif(X_INTRODUCED_30_,[X_INTRODUCED_17_,X_INTRODUCED_22_],-1,X_INTRODUCED_35_):: defines_var(X_INTRODUCED_35_);
constraint int_lin_le_reif(X_INTRODUCED_30_,[X_INTRODUCED_17_,X_INTRODUCED_23_],-1,X_INTRODUCED_36_):: defines_var(X_INTRODUCED_36_);
constraint int_lin_le_reif(X_INTRODUCED_30_,[X_INTRODUCED_17_,X_INTRODUCED_24_],-1,X_INTRODUCED_37_):: defines_var(X_INTRODUCED_37_);
constraint int_lin_le_reif(X_INTRODUCED_30_,[X_INTRODUCED_17_,X_INTRODUCED_25_],-1,X_INTRODUCED_38_):: defines_var(X_INTRODUCED_38_);
constraint int_lin_le_reif(X_INTRODUCED_30_,[X_INTRODUCED_17_,X_INTRODUCED_26_],-1,X_INTRODUCED_39_):: defines_var(X_INTRODUCED_39_);
constraint int_lin_le_reif(X_INTRODUCED_30_,[X_INTRODUCED_17_,X_INTRODUCED_27_],-1,X_INTRODUCED_40_):: defines_var(X_INTRODUCED_40_);
constraint int_lin_le_reif(X_INTRODUCED_30_,[X_INTRODUCED_17_,X_INTRODUCED_28_],-1,X_INTRODUCED_41_):: defines_var(X_INTRODUCED_41_);
constraint int_lin_le_reif(X_INTRODUCED_30_,[X_INTRODUCED_18_,X_INTRODUCED_19_],-1,X_INTRODUCED_42_):: defines_var(X_INTRODUCED_42_);
constraint int_lin_le_reif(X_INTRODUCED_30_,[X_INTRODUCED_18_,X_INTRODUCED_20_],-1,X_INTRODUCED_43_):: defines_var(X_INTRODUCED_43_);
constraint int_lin_le_reif(X_INTRODUCED_30_,[X_INTRODUCED_18_,X_INTRODUCED_21_],-1,X_INTRODUCED_44_):: defines_var(X_INTRODUCED_44_);
constraint int_lin_le_reif(X_INTRODUCED_30_,[X_INTRODUCED_18_,X_INTRODUCED_22_],-1,X_INTRODUCED_45_):: defines_var(X_INTRODUCED_45_);
constraint int_lin_le_reif(X_INTRODUCED_30_,[X_INTRODUCED_18_,X_INTRODUCED_23_],-1,X_INTRODUCED_46_):: defines_var(X_INTRODUCED_46_);
constraint int_lin_le_reif(X_INTRODUCED_30_,[X_INTRODUCED_18_,X_INTRODUCED_24_],-1,X_INTRODUCED_47_):: defines_var(X_INTRODUCED_47_);
constraint int_lin_le_reif(X_INTRODUCED_30_,[X_INTRODUCED_18_,X_INTRODUCED_25_],-1,X_INTRODUCED_48_):: defines_var(X_INTRODUCED_48_);
constraint int_lin_le_reif(X_INTRODUCED_30_,[X_INTRODUCED_18_,X_INTRODUCED_26_],-1,X_INTRODUCED_49_):: defines_var(X_INTRODUCED_49_);
constraint int_lin_le_reif(X_INTRODUCED_30_,[X_INTRODUCED_18_,X_INTRODUCED_27_],-1,X_INTRODUCED_50_):: defines_var(X_INTRODUCED_50_);
constraint int_lin_le_reif(X_INTRODUCED_30_,[X_INTRODUCED_18_,X_INTRODUCED_28_],-1,X_INTRODUCED_51_):: defines_var(X_INTRODUCED_51_);
constraint int_lin_le_reif(X_INTRODUCED_30_,[X_INTRODUCED_19_,X_INTRODUCED_20_],-1,X_INTRODUCED_52_):: defines_var(X_INTRODUCED_52_);
constraint int_lin_le_reif(X_INTRODUCED_30_,[X_INTRODUCED_19_,X_INTRODUCED_21_],-1,X_INTRODUCED_53_):: defines_var(X_INTRODUCED_53_);
constraint int_lin_le_reif(X_INTRODUCED_30_,[X_INTRODUCED_19_,X_INTRODUCED_22_],-1,X_INTRODUCED_54_):: defines_var(X_INTRODUCED_54_);
constraint int_lin_le_reif(X_INTRODUCED_30_,[X_INTRODUCED_19_,X_INTRODUCED_23_],-1,X_INTRODUCED_55_):: defines_var(X_INTRODUCED_55_);
constraint int_lin_le_reif(X_INTRODUCED_30_,[X_INTRODUCED_19_,X_INTRODUCED_24_],-1,X_INTRODUCED_56_):: defines_var(X_INTRODUCED_56_);
constraint int_lin_le_reif(X_INTRODUCED_30_,[X_INTRODUCED_19_,X_INTRODUCED_25_],-1,X_INTRODUCED_57_):: defines_var(X_INTRODUCED_57_);
constraint int_lin_le_reif(X_INTRODUCED_30_,[X_INTRODUCED_19_,X_INTRODUCED_26_],-1,X_INTRODUCED_58_):: defines_var(X_INTRODUCED_58_);
constraint int_lin_le_reif(X_INTRODUCED_30_,[X_INTRODUCED_19_,X_INTRODUCED_27_],-1,X_INTRODUCED_59_):: defines_var(X_INTRODUCED_59_);
constraint int_lin_le_reif(X_INTRODUCED_30_,[X_INTRODUCED_19_,X_INTRODUCED_28_],-1,X_INTRODUCED_60_):: defines_var(X_INTRODUCED_60_);
constraint int_lin_le_reif(X_INTRODUCED_30_,[X_INTRODUCED_20_,X_INTRODUCED_21_],-1,X_INTRODUCED_61_):: defines_var(X_INTRODUCED_61_);
constraint int_lin_le_reif(X_INTRODUCED_30_,[X_INTRODUCED_20_,X_INTRODUCED_22_],-1,X_INTRODUCED_62_):: defines_var(X_INTRODUCED_62_);
constraint int_lin_le_reif(X_INTRODUCED_30_,[X_INTRODUCED_20_,X_INTRODUCED_23_],-1,X_INTRODUCED_63_):: defines_var(X_INTRODUCED_63_);
constraint int_lin_le_reif(X_INTRODUCED_30_,[X_INTRODUCED_20_,X_INTRODUCED_24_],-1,X_INTRODUCED_64_):: defines_var(X_INTRODUCED_64_);
constraint int_lin_le_reif(X_INTRODUCED_30_,[X_INTRODUCED_20_,X_INTRODUCED_25_],-1,X_INTRODUCED_65_):: defines_var(X_INTRODUCED_65_);
constraint int_lin_le_reif(X_INTRODUCED_30_,[X_INTRODUCED_20_,X_INTRODUCED_26_],-1,X_INTRODUCED_66_):: defines_var(X_INTRODUCED_66_);
constraint int_lin_le_reif(X_INTRODUCED_30_,[X_INTRODUCED_20_,X_INTRODUCED_27_],-1,X_INTRODUCED_67_):: defines_var(X_INTRODUCED_67_);
constraint int_lin_le_reif(X_INTRODUCED_30_,[X_INTRODUCED_20_,X_INTRODUCED_28_],-1,X_INTRODUCED_68_):: defines_var(X_INTRODUCED_68_);
constraint int_lin_le_reif(X_INTRODUCED_30_,[X_INTRODUCED_21_,X_INTRODUCED_22_],-1,X_INTRODUCED_69_):: defines_var(X_INTRODUCED_69_);
constraint int_lin_le_reif(X_INTRODUCED_30_,[X_INTRODUCED_21_,X_INTRODUCED_23_],-1,X_INTRODUCED_70_):: defines_var(X_INTRODUCED_70_);
constraint int_lin_le_reif(X_INTRODUCED_30_,[X_INTRODUCED_21_,X_INTRODUCED_24_],-1,X_INTRODUCED_71_):: defines_var(X_INTRODUCED_71_);
constraint int_lin_le_reif(X_INTRODUCED_30_,[X_INTRODUCED_21_,X_INTRODUCED_25_],-1,X_INTRODUCED_72_):: defines_var(X_INTRODUCED_72_);
constraint int_lin_le_reif(X_INTRODUCED_30_,[X_INTRODUCED_21_,X_INTRODUCED_26_],-1,X_INTRODUCED_73_):: defines_var(X_INTRODUCED_73_);
constraint int_lin_le_reif(X_INTRODUCED_30_,[X_INTRODUCED_21_,X_INTRODUCED_27_],-1,X_INTRODUCED_74_):: defines_var(X_INTRODUCED_74_);
constraint int_lin_le_reif(X_INTRODUCED_30_,[X_INTRODUCED_21_,X_INTRODUCED_28_],-1,X_INTRODUCED_75_):: defines_var(X_INTRODUCED_75_);
constraint int_lin_le_reif(X_INTRODUCED_30_,[X_INTRODUCED_22_,X_INTRODUCED_23_],-1,X_INTRODUCED_76_):: defines_var(X_INTRODUCED_76_);
constraint int_lin_le_reif(X_INTRODUCED_30_,[X_INTRODUCED_22_,X_INTRODUCED_24_],-1,X_INTRODUCED_77_):: defines_var(X_INTRODUCED_77_);
constraint int_lin_le_reif(X_INTRODUCED_30_,[X_INTRODUCED_22_,X_INTRODUCED_25_],-1,X_INTRODUCED_78_):: defines_var(X_INTRODUCED_78_);
constraint int_lin_le_reif(X_INTRODUCED_30_,[X_INTRODUCED_22_,X_INTRODUCED_26_],-1,X_INTRODUCED_79_):: defines_var(X_INTRODUCED_79_);
constraint int_lin_le_reif(X_INTRODUCED_30_,[X_INTRODUCED_22_,X_INTRODUCED_27_],-1,X_INTRODUCED_80_):: defines_var(X_INTRODUCED_80_);
constraint int_lin_le_reif(X_INTRODUCED_30_,[X_INTRODUCED_22_,X_INTRODUCED_28_],-1,X_INTRODUCED_81_):: defines_var(X_INTRODUCED_81_);
constraint int_lin_le_reif(X_INTRODUCED_30_,[X_INTRODUCED_23_,X_INTRODUCED_24_],-1,X_INTRODUCED_82_):: defines_var(X_INTRODUCED_82_);
constraint int_lin_le_reif(X_INTRODUCED_30_,[X_INTRODUCED_23_,X_INTRODUCED_25_],-1,X_INTRODUCED_83_):: defines_var(X_INTRODUCED_83_);
constraint int_lin_le_reif(X_INTRODUCED_30_,[X_INTRODUCED_23_,X_INTRODUCED_26_],-1,X_INTRODUCED_84_):: defines_var(X_INTRODUCED_84_);
constraint int_lin_le_reif(X_INTRODUCED_30_,[X_INTRODUCED_23_,X_INTRODUCED_27_],-1,X_INTRODUCED_85_):: defines_var(X_INTRODUCED_85_);
constraint int_lin_le_reif(X_INTRODUCED_30_,[X_INTRODUCED_23_,X_INTRODUCED_28_],-1,X_INTRODUCED_86_):: defines_var(X_INTRODUCED_86_);
constraint int_lin_le_reif(X_INTRODUCED_30_,[X_INTRODUCED_24_,X_INTRODUCED_25_],-1,X_INTRODUCED_87_):: defines_var(X_INTRODUCED_87_);
constraint int_lin_le_reif(X_INTRODUCED_30_,[X_INTRODUCED_24_,X_INTRODUCED_26_],-1,X_INTRODUCED_88_):: defines_var(X_INTRODUCED_88_);
constraint int_lin_le_reif(X_INTRODUCED_30_,[X_INTRODUCED_24_,X_INTRODUCED_27_],-1,X_INTRODUCED_89_):: defines_var(X_INTRODUCED_89_);
constraint int_lin_le_reif(X_INTRODUCED_30_,[X_INTRODUCED_24_,X_INTRODUCED_28_],-1,X_INTRODUCED_90_):: defines_var(X_INTRODUCED_90_);
constraint int_lin_le_reif(X_INTRODUCED_30_,[X_INTRODUCED_25_,X_INTRODUCED_26_],-1,X_INTRODUCED_91_):: defines_var(X_INTRODUCED_91_);
constraint int_lin_le_reif(X_INTRODUCED_30_,[X_INTRODUCED_25_,X_INTRODUCED_27_],-1,X_INTRODUCED_92_):: defines_var(X_INTRODUCED_92_);
constraint int_lin_le_reif(X_INTRODUCED_30_,[X_INTRODUCED_25_,X_INTRODUCED_28_],-1,X_INTRODUCED_93_):: defines_var(X_INTRODUCED_93_);
constraint int_lin_le_reif(X_INTRODUCED_30_,[X_INTRODUCED_26_,X_INTRODUCED_27_],-1,X_INTRODUCED_94_):: defines_var(X_INTRODUCED_94_);
constraint int_lin_le_reif(X_INTRODUCED_30_,[X_INTRODUCED_26_,X_INTRODUCED_28_],-1,X_INTRODUCED_95_):: defines_var(X_INTRODUCED_95_);
constraint int_lin_le_reif(X_INTRODUCED_30_,[X_INTRODUCED_27_,X_INTRODUCED_28_],-1,X_INTRODUCED_96_):: defines_var(X_INTRODUCED_96_);
constraint int_lin_eq([1,1,1,1,1,1,1,1,1,1,1,1,1,1,1,1,1,1,1,1,1,1,1,1,1,1,1,1,1,1,1,1,1,1,1,1,1,1,1,1,1,1,1,1,1,1,1,1,1,1,1,1,1,1,1,1,1,1,1,1,1,1,1,1,1,1,-1],[X_INTRODUCED_97_,X_INTRODUCED_98_,X_INTRODUCED_99_,X_INTRODUCED_100_,X_INTRODUCED_101_,X_INTRODUCED_102_,X_INTRODUCED_103_,X_INTRODUCED_104_,X_INTRODUCED_105_,X_INTRODUCED_106_,X_INTRODUCED_107_,X_INTRODUCED_108_,X_INTRODUCED_109_,X_INTRODUCED_110_,X_INTRODUCED_111_,X_INTRODUCED_112_,X_INTRODUCED_113_,X_INTRODUCED_114_,X_INTRODUCED_115_,X_INTRODUCED_116_,X_INTRODUCED_117_,X_INTRODUCED_118_,X_INTRODUCED_119_,X_INTRODUCED_120_,X_INTRODUCED_121_,X_INTRODUCED_122_,X_INTRODUCED_123_,X_INTRODUCED_124_,X_INTRODUCED_125_,X_INTRODUCED_126_,X_INTRODUCED_127_,X_INTRODUCED_128_,X_INTRODUCED_129_,X_INTRODUCED_130_,X_INTRODUCED_131_,X_INTRODUCED_132_,X_INTRODUCED_133_,X_INTRODUCED_134_,X_INTRODUCED_135_,X_INTRODUCED_136_,X_INTRODUCED_137_,X_INTRODUCED_138_,X_INTRODUCED_139_,X_INTRODUCED_140_,X_INTRODUCED_141_,X_INTRODUCED_142_,X_INTRODUCED_143_,X_INTRODUCED_144_,X_INTRODUCED_145_,X_INTRODUCED_146_,X_INTRODUCED_147_,X_INTRODUCED_148_,X_INTRODUCED_149_,X_INTRODUCED_150_,X_INTRODUCED_151_,X_INTRODUCED_152_,X_INTRODUCED_153_,X_INTRODUCED_154_,X_INTRODUCED_155_,X_INTRODUCED_156_,X_INTRODUCED_157_,X_INTRODUCED_158_,X_INTRODUCED_159_,X_INTRODUCED_160_,X_INTRODUCED_161_,X_INTRODUCED_162_,goal],0):: defines_var(goal);
constraint bool2int(X_INTRODUCED_31_,X_INTRODUCED_97_):: defines_var(X_INTRODUCED_97_);
constraint bool2int(X_INTRODUCED_32_,X_INTRODUCED_98_):: defines_var(X_INTRODUCED_98_);
constraint bool2int(X_INTRODUCED_33_,X_INTRODUCED_99_):: defines_var(X_INTRODUCED_99_);
constraint bool2int(X_INTRODUCED_34_,X_INTRODUCED_100_):: defines_var(X_INTRODUCED_100_);
constraint bool2int(X_INTRODUCED_35_,X_INTRODUCED_101_):: defines_var(X_INTRODUCED_101_);
constraint bool2int(X_INTRODUCED_36_,X_INTRODUCED_102_):: defines_var(X_INTRODUCED_102_);
constraint bool2int(X_INTRODUCED_37_,X_INTRODUCED_103_):: defines_var(X_INTRODUCED_103_);
constraint bool2int(X_INTRODUCED_38_,X_INTRODUCED_104_):: defines_var(X_INTRODUCED_104_);
constraint bool2int(X_INTRODUCED_39_,X_INTRODUCED_105_):: defines_var(X_INTRODUCED_105_);
constraint bool2int(X_INTRODUCED_40_,X_INTRODUCED_106_):: defines_var(X_INTRODUCED_106_);
constraint bool2int(X_INTRODUCED_41_,X_INTRODUCED_107_):: defines_var(X_INTRODUCED_107_);
constraint bool2int(X_INTRODUCED_42_,X_INTRODUCED_108_):: defines_var(X_INTRODUCED_108_);
constraint bool2int(X_INTRODUCED_43_,X_INTRODUCED_109_):: defines_var(X_INTRODUCED_109_);
constraint bool2int(X_INTRODUCED_44_,X_INTRODUCED_110_):: defines_var(X_INTRODUCED_110_);
constraint bool2int(X_INTRODUCED_45_,X_INTRODUCED_111_):: defines_var(X_INTRODUCED_111_);
constraint bool2int(X_INTRODUCED_46_,X_INTRODUCED_112_):: defines_var(X_INTRODUCED_112_);
constraint bool2int(X_INTRODUCED_47_,X_INTRODUCED_113_):: defines_var(X_INTRODUCED_113_);
constraint bool2int(X_INTRODUCED_48_,X_INTRODUCED_114_):: defines_var(X_INTRODUCED_114_);
constraint bool2int(X_INTRODUCED_49_,X_INTRODUCED_115_):: defines_var(X_INTRODUCED_115_);
constraint bool2int(X_INTRODUCED_50_,X_INTRODUCED_116_):: defines_var(X_INTRODUCED_116_);
constraint bool2int(X_INTRODUCED_51_,X_INTRODUCED_117_):: defines_var(X_INTRODUCED_117_);
constraint bool2int(X_INTRODUCED_52_,X_INTRODUCED_118_):: defines_var(X_INTRODUCED_118_);
constraint bool2int(X_INTRODUCED_53_,X_INTRODUCED_119_):: defines_var(X_INTRODUCED_119_);
constraint bool2int(X_INTRODUCED_54_,X_INTRODUCED_120_):: defines_var(X_INTRODUCED_120_);
constraint bool2int(X_INTRODUCED_55_,X_INTRODUCED_121_):: defines_var(X_INTRODUCED_121_);
constraint bool2int(X_INTRODUCED_56_,X_INTRODUCED_122_):: defines_var(X_INTRODUCED_122_);
constraint bool2int(X_INTRODUCED_57_,X_INTRODUCED_123_):: defines_var(X_INTRODUCED_123_);
constraint bool2int(X_INTRODUCED_58_,X_INTRODUCED_124_):: defines_var(X_INTRODUCED_124_);
constraint bool2int(X_INTRODUCED_59_,X_INTRODUCED_125_):: defines_var(X_INTRODUCED_125_);
constraint bool2int(X_INTRODUCED_60_,X_INTRODUCED_126_):: defines_var(X_INTRODUCED_126_);
constraint bool2int(X_INTRODUCED_61_,X_INTRODUCED_127_):: defines_var(X_INTRODUCED_127_);
constraint bool2int(X_INTRODUCED_62_,X_INTRODUCED_128_):: defines_var(X_INTRODUCED_128_);
constraint bool2int(X_INTRODUCED_63_,X_INTRODUCED_129_):: defines_var(X_INTRODUCED_129_);
constraint bool2int(X_INTRODUCED_64_,X_INTRODUCED_130_):: defines_var(X_INTRODUCED_130_);
constraint bool2int(X_INTRODUCED_65_,X_INTRODUCED_131_):: defines_var(X_INTRODUCED_131_);
constraint bool2int(X_INTRODUCED_66_,X_INTRODUCED_132_):: defines_var(X_INTRODUCED_132_);
constraint bool2int(X_INTRODUCED_67_,X_INTRODUCED_133_):: defines_var(X_INTRODUCED_133_);
constraint bool2int(X_INTRODUCED_68_,X_INTRODUCED_134_):: defines_var(X_INTRODUCED_134_);
constraint bool2int(X_INTRODUCED_69_,X_INTRODUCED_135_):: defines_var(X_INTRODUCED_135_);
constraint bool2int(X_INTRODUCED_70_,X_INTRODUCED_136_):: defines_var(X_INTRODUCED_136_);
constraint bool2int(X_INTRODUCED_71_,X_INTRODUCED_137_):: defines_var(X_INTRODUCED_137_);
constraint bool2int(X_INTRODUCED_72_,X_INTRODUCED_138_):: defines_var(X_INTRODUCED_138_);
constraint bool2int(X_INTRODUCED_73_,X_INTRODUCED_139_):: defines_var(X_INTRODUCED_139_);
constraint bool2int(X_INTRODUCED_74_,X_INTRODUCED_140_):: defines_var(X_INTRODUCED_140_);
constraint bool2int(X_INTRODUCED_75_,X_INTRODUCED_141_):: defines_var(X_INTRODUCED_141_);
constraint bool2int(X_INTRODUCED_76_,X_INTRODUCED_142_):: defines_var(X_INTRODUCED_142_);
constraint bool2int(X_INTRODUCED_77_,X_INTRODUCED_143_):: defines_var(X_INTRODUCED_143_);
constraint bool2int(X_INTRODUCED_78_,X_INTRODUCED_144_):: defines_var(X_INTRODUCED_144_);
constraint bool2int(X_INTRODUCED_79_,X_INTRODUCED_145_):: defines_var(X_INTRODUCED_145_);
constraint bool2int(X_INTRODUCED_80_,X_INTRODUCED_146_):: defines_var(X_INTRODUCED_146_);
constraint bool2int(X_INTRODUCED_81_,X_INTRODUCED_147_):: defines_var(X_INTRODUCED_147_);
constraint bool2int(X_INTRODUCED_82_,X_INTRODUCED_148_):: defines_var(X_INTRODUCED_148_);
constraint bool2int(X_INTRODUCED_83_,X_INTRODUCED_149_):: defines_var(X_INTRODUCED_149_);
constraint bool2int(X_INTRODUCED_84_,X_INTRODUCED_150_):: defines_var(X_INTRODUCED_150_);
constraint bool2int(X_INTRODUCED_85_,X_INTRODUCED_151_):: defines_var(X_INTRODUCED_151_);
constraint bool2int(X_INTRODUCED_86_,X_INTRODUCED_152_):: defines_var(X_INTRODUCED_152_);
constraint bool2int(X_INTRODUCED_87_,X_INTRODUCED_153_):: defines_var(X_INTRODUCED_153_);
constraint bool2int(X_INTRODUCED_88_,X_INTRODUCED_154_):: defines_var(X_INTRODUCED_154_);
constraint bool2int(X_INTRODUCED_89_,X_INTRODUCED_155_):: defines_var(X_INTRODUCED_155_);
constraint bool2int(X_INTRODUCED_90_,X_INTRODUCED_156_):: defines_var(X_INTRODUCED_156_);
constraint bool2int(X_INTRODUCED_91_,X_INTRODUCED_157_):: defines_var(X_INTRODUCED_157_);
constraint bool2int(X_INTRODUCED_92_,X_INTRODUCED_158_):: defines_var(X_INTRODUCED_158_);
constraint bool2int(X_INTRODUCED_93_,X_INTRODUCED_159_):: defines_var(X_INTRODUCED_159_);
constraint bool2int(X_INTRODUCED_94_,X_INTRODUCED_160_):: defines_var(X_INTRODUCED_160_);
constraint bool2int(X_INTRODUCED_95_,X_INTRODUCED_161_):: defines_var(X_INTRODUCED_161_);
constraint bool2int(X_INTRODUCED_96_,X_INTRODUCED_162_):: defines_var(X_INTRODUCED_162_);
solve  minimize goal;
