data/simple-data/tester.ozn
output ["perm = ",showDzn(perm),";\n"];
set of int: N = 1..12;
array [N] of int: perm;
